NAME: ACTUAL_TOURS/amz3017
TYPE: TOUR
COMMENT: RouteID_f2b1b896-17af-45fa-8b57-41e997d1e877
DIMENSION: 95
TOUR_SECTION
47
72
90
30
64
61
9
81
65
75
50
70
63
59
39
6
89
45
54
91
19
46
20
17
94
78
67
38
49
73
27
12
58
44
26
95
36
3
86
57
25
42
88
29
15
85
43
74
41
77
93
23
62
66
13
28
4
7
83
87
92
82
48
21
79
1
31
68
51
52
10
2
33
40
84
56
53
76
11
71
60
8
14
69
16
55
35
37
5
34
32
24
80
18
22
-1
EOF
